decision_x1=[0,2];
decision_x2=[0,2];
decision_x3=[0,2];
decision_x4=[0,2];
decision_x5=[0,2];
random_y1=[0,2];
constraint_x3_x1=[
0,0,3.7|
0,1,5.3|
0,2,1.4|
1,0,7.8|
1,1,8.5|
1,2,3.2|
2,0,2|
2,1,7.5|
2,2,0.73|
];
constraint_x3_x2=[
0,0,0.48|
0,1,2.8|
0,2,1.7|
1,0,2.6|
1,1,9|
1,2,0.53|
2,0,5.8|
2,1,8.9|
2,2,9.3|
];
constraint_x4_x1=[
0,0,5.3|
0,1,6|
0,2,5.4|
1,0,3.8|
1,1,6.3|
1,2,7|
2,0,6.4|
2,1,3.1|
2,2,7.5|
];
constraint_x5_x1=[
0,0,8.9|
0,1,1.6|
0,2,3.9|
1,0,2.1|
1,1,8.7|
1,2,1.6|
2,0,3.6|
2,1,7.9|
2,2,3.2|
];
constraint_x5_x4=[
0,0,2|
0,1,0.53|
0,2,6.3|
1,0,7|
1,1,1.2|
1,2,6.5|
2,0,3.9|
2,1,8.9|
2,2,4.8|
];
constraint_x1_y1=[
0,0,1.9|
0,1,4.8|
0,2,7.4|
1,0,3.5|
1,1,6.4|
1,2,1|
2,0,4.5|
2,1,4.6|
2,2,0.21|
];
initial_distribution_y1=[0.38,0.26,0.37];
transition_y1=[
0.41,0.25,0.33|
0.53,0.23,0.24|
0.75,0.19,0.064|
];
